(set-info :smt-lib-version 2.6)
(set-logic QF_S)
(set-info :source |
Generated by: Hongjian Jiang, Oliver Markgraf, Daniel Stan, Anthony W. Lin, Philipp Ruemmer
Generated on: 2025-04-11
Application: Using String Solvers to solve RMC problems encoded as CHC over Strings
Target solver: cvc5, OSTRICH, Z3, Z3alpha, Z3-noodler
Time limit: 60.0
Benchmarks are extracted by running HornStr https://arg-git.informatik.uni-kl.de/pub/string-chc-lib on all benchmarks
provided in the repository and gathering the string queries sent to the string solvers.
|)
(set-info :license "https://creativecommons.org/licenses/by/4.0/")
(set-info :category "industrial")
(declare-fun varout () String)
(assert (let ((a!1 (re.union (re.union (re.union (str.to_re "a") (str.to_re "H"))
                               (str.to_re "b"))
                     (str.to_re "c"))))
(let ((a!2 (re.* (re.union (re.union a!1 (str.to_re "d")) (str.to_re "E")))))
  (str.in_re varout a!2))))
(declare-fun varin () String)
(assert (let ((a!1 (re.union (re.union (re.union (str.to_re "a") (str.to_re "H"))
                               (str.to_re "b"))
                     (str.to_re "c"))))
(let ((a!2 (re.* (re.union (re.union a!1 (str.to_re "d")) (str.to_re "E")))))
  (str.in_re varin a!2))))
(declare-fun X () String)
(declare-fun isin () Bool)
(declare-fun isout () Bool)
(assert (let ((a!1 (re.union (re.union (re.union (str.to_re "a") (str.to_re "d"))
                               (str.to_re "H"))
                     (str.to_re "b"))))
(let ((a!2 (re.++ (re.* (re.union a!1 (str.to_re "c"))) (str.to_re "E")))
      (a!5 (re.* (re.union (re.union a!1 (str.to_re "c")) (str.to_re "E")))))
(let ((a!3 (re.union (str.to_re "E") (re.++ (re.union a!1 (str.to_re "c")) a!2)))
      (a!6 (re.++ (re.union (re.union a!1 (str.to_re "c")) (str.to_re "E")) a!5)))
(let ((a!4 (re.++ (re.* (re.union a!1 (str.to_re "c"))) a!3)))
(let ((a!7 (re.++ (re.++ a!4 (str.to_re "E"))
                  (re.++ a!5 (re.union (str.to_re "") a!6)))))
  (and (str.in_re X a!7) true (= X varin) isin (not isout))))))))
(push 1)
(assert (let ((a!1 (re.union (re.union (re.union (str.to_re "a") (str.to_re "H"))
                               (str.to_re "b"))
                     (str.to_re "c"))))
(let ((a!2 (re.* (re.union (re.union a!1 (str.to_re "d")) (str.to_re "E")))))
(let ((a!3 (re.++ (re.union (re.union a!1 (str.to_re "d")) (str.to_re "E")) a!2)))
  (str.in_re varin (re.++ a!2 (re.union (str.to_re "") a!3)))))))
(set-info :status unknown)
(check-sat)
(pop 1)
(push 1)
(assert (let ((a!1 (re.union (re.union (re.union (str.to_re "a") (str.to_re "H"))
                               (str.to_re "b"))
                     (str.to_re "c"))))
(let ((a!2 (re.++ (re.union a!1 (str.to_re "d"))
                  (re.* (re.union a!1 (str.to_re "d")))))
      (a!4 (re.++ (re.* (re.union a!1 (str.to_re "d"))) (str.to_re "E"))))
(let ((a!3 (re.++ (re.* (re.union a!1 (str.to_re "d")))
                  (re.union (str.to_re "") a!2)))
      (a!5 (re.union (str.to_re "E") (re.++ (re.union a!1 (str.to_re "d")) a!4))))
(let ((a!6 (re.++ (re.* (re.union a!1 (str.to_re "d"))) a!5))
      (a!8 (re.union (str.to_re "") (re.++ (re.union a!1 (str.to_re "d")) a!3))))
(let ((a!7 (re.* (re.++ (re.union a!1 (str.to_re "d")) a!6))))
(let ((a!9 (re.++ (re.++ (re.union a!1 (str.to_re "d")) a!6) (re.++ a!7 a!8))))
(let ((a!10 (re.union a!3 (re.++ a!6 (re.++ a!7 (re.union a!8 a!9))))))
  (str.in_re varin a!10)))))))))
(set-info :status unknown)
(check-sat)
(pop 1)
(set-info :status unknown)
(check-sat)
(exit)
